p cnf 10 50
6 -3 -2 0
-6 4 -8 0
1 -4 3 0
4 -9 5 0
1 8 7 0
-4 -3 10 0
2 3 6 0
-4 6 -2 0
9 5 2 0
-2 -4 -5 0
5 -8 6 0
-2 3 -5 0
-6 8 3 0
-6 -10 8 0
-9 -6 8 0
1 8 -9 0
7 -8 -1 0
-3 -10 -7 0
10 7 5 0
10 5 -4 0
-10 -1 6 0
-9 4 -3 0
7 8 2 0
9 4 -1 0
-5 -9 8 0
-5 -8 -2 0
-9 -8 4 0
10 -2 -6 0
9 -10 -6 0
-7 -5 -6 0
5 -3 -6 0
10 5 3 0
8 -3 2 0
8 -3 7 0
10 1 3 0
-4 -8 1 0
6 -10 -4 0
2 4 -9 0
-2 4 7 0
5 -7 2 0
8 3 6 0
-5 -6 8 0
-7 -10 -6 0
8 -3 9 0
8 1 6 0
-7 6 1 0
-1 6 -9 0
-6 8 -10 0
4 -2 -1 0
6 -7 -2 0